13
19  9 18 18 10 18  6 15  7  5  6 18  6
13 12 12  1  9  3 15 18  3  2 20  1 20
12  7 20  2  9  7  3 19 11  7 20  3  4
 8  9  5  4 15 10  9 13 15 20 10  1 14
16  9 18  3 14 16  4  3  4  6 15 16 12
18 16  7 20  9  6 10 20 11 20  6  2 19
15 10 18  9  2 20  8 14  9 17 16  3  6
 8 18 14  2  5  3  1 10  7  4 20 12 14
15 18 17 11  8 11 11  9  2  6  7  5  2
10  2 18 18 13 11 17 11  3  3  8 12  4
15 18 13 18  3  7 11  8  8 14  1 15  1
 9  8 13 20 16  5 11  4 17 10  5 12  1
12  8 14 15  4  2 12 19 16  8 17  5 16